09-routing/solutions/XSH-n20-k4-47.opt.sol
Route #1: 11 9 20 10 16 18 19
Route #2: 7 8 5 15 3
Route #3: 14 2 1 17
Route #4: 6 13 4 12
Cost 583
